interval = 60;
days = 7;
demand = [0,0,0,0,0,4,4,4,4,9,13,13,13,9,13,14,14,5,5,5,5,2,3,4,4,4,4,4,4,8,7,4,4,9,13,13,13,9,13,14,14,5,5,5,5,2,4,5,5,5,5,5,5,9,7,4,4,9,13,13,13,9,13,14,14,5,5,5,5,2,3,4,4,4,4,4,4,8,7,4,4,6,10,10,10,6,10,11,11,5,5,5,5,2,3,4,4,4,4,4,4,8,7,4,4,9,14,14,14,10,14,15,15,5,5,5,5,2,3,4,4,4,4,4,4,8,7,4,4,5,7,7,7,3,8,12,12,9,9,9,9,6,6,0,0,0,0,0,0,4,4,4,4,5,7,7,7,3,8,12,12,9,9,9,9,6,6,0];
shiftTypes = 4;
minStart = [5, 9, 13, 21];
maxStart = [8, 11, 15, 23];
minLength = [7, 7, 7, 7];
maxLength = [9, 9, 9, 9];
minDuties = 3;
maxDuties = 5;
avgMinutes = 2310;
weightUnderCover = 1;
weightOverCover = 1;
weightDutiesPerWeek = 1000;
weightShiftInstances = 60;
